 $CONTRL ISPHER=1 UNITS=BOHR $END
 $CONTRL SCFTYP=MCSCF RUNTYP=ENERGY $END
 $CONTRL DASORT=.T. $END

 $MCSCF CISTEP=GUGA CANONC=.T. $END
 $DRT GROUP=C2V NMCC=4 NDOC=1 NVAL=1 ISTSYM=1 FORS=.T. $END

 $CONTRL MPLEVL=2 $END
 $MRMP MRPT=MCQDPT $END
 $MCQDPT NMOFZC=0 NMODOC=4 ISTSYM=1 IFORB=1 $END

 $BASIS GBASIS=CCD $END
 $GUESS GUESS=MOREAD NORB=19 $END

 $DATA 
  HF molecule cc-DVZ basis at 8.0 angstrom
Cnv 2

 H            1.0      0.0000000   0.00000000  1.5
 F            9.0      0.0000000   0.00000000  0.00000000
 $END
 $VEC   
 1  1-1.77019458E-05 2.07617126E-05 0.00000000E+00 0.00000000E+00-1.10959372E-07
 1  2 1.00045372E+00 1.81853909E-06-2.33290591E-03 0.00000000E+00 0.00000000E+00
 1  3 4.99751282E-07 0.00000000E+00 0.00000000E+00-7.34346721E-07 1.56238926E-04
 1  4 1.56238926E-04-3.12477852E-04 0.00000000E+00 0.00000000E+00 0.00000000E+00
 2  1-6.55014032E-04 1.22723409E-03-0.00000000E+00-0.00000000E+00-2.57558199E-05
 2  2-1.11165990E-05 5.13681166E-01 5.68796880E-01-0.00000000E+00-0.00000000E+00
 2  3-8.97455351E-06-0.00000000E+00-0.00000000E+00-1.65570916E-05 6.10367697E-04
 2  4 6.10367697E-04-1.22073539E-03-0.00000000E+00-0.00000000E+00-0.00000000E+00
 3  1-0.00000000E+00-0.00000000E+00-0.00000000E+00 1.15883860E-05-0.00000000E+00
 3  2-0.00000000E+00-0.00000000E+00-0.00000000E+00-0.00000000E+00 6.87406199E-01
 3  3-0.00000000E+00-0.00000000E+00 4.63611841E-01-0.00000000E+00-0.00000000E+00
 3  4-0.00000000E+00-0.00000000E+00-0.00000000E+00-0.00000000E+00 2.80101642E-07
 4  1-0.00000000E+00-0.00000000E+00 1.15883860E-05-0.00000000E+00-0.00000000E+00
 4  2-0.00000000E+00-0.00000000E+00-0.00000000E+00 6.87406199E-01-0.00000000E+00
 4  3-0.00000000E+00 4.63611841E-01-0.00000000E+00-0.00000000E+00-0.00000000E+00
 4  4-0.00000000E+00-0.00000000E+00-0.00000000E+00 2.80101642E-07-0.00000000E+00
 5  1 1.72273623E-02 2.21411397E-02-0.00000000E+00-0.00000000E+00-1.23617816E-04
 5  2-1.59056641E-05-9.66428633E-05-5.16429297E-05-0.00000000E+00-0.00000000E+00
 5  3 7.10987163E-01-0.00000000E+00-0.00000000E+00 4.35118540E-01-4.78708573E-06
 5  4-4.78708573E-06 9.57417146E-06-0.00000000E+00-0.00000000E+00-0.00000000E+00
 6  1 5.87313339E-01 5.00847123E-01 0.00000000E+00 0.00000000E+00-3.72032435E-04
 6  2-2.51358505E-04-2.04432290E-03-1.55680676E-03 0.00000000E+00 0.00000000E+00
 6  3-3.10301523E-02 0.00000000E+00 0.00000000E+00-1.61466917E-02-9.56762619E-05
 6  4-9.56762619E-05 1.91352524E-04 0.00000000E+00 0.00000000E+00 0.00000000E+00
 7  1-1.23896778E+00 1.27583522E+00 0.00000000E+00 0.00000000E+00 4.29201808E-05
 7  2-7.44968178E-03-2.17537821E-02 1.29056642E-02 0.00000000E+00 0.00000000E+00
 7  3-3.60196124E-02 0.00000000E+00 0.00000000E+00 2.15209684E-02-4.57278808E-04
 7  4-4.57278808E-04 9.14557617E-04 0.00000000E+00 0.00000000E+00 0.00000000E+00
 8  1 0.00000000E+00 0.00000000E+00 6.20806315E-04 0.00000000E+00 0.00000000E+00
 8  2 0.00000000E+00 0.00000000E+00 0.00000000E+00-9.18707636E-01 0.00000000E+00
 8  3 0.00000000E+00 1.04957846E+00 0.00000000E+00 0.00000000E+00 0.00000000E+00
 8  4 0.00000000E+00 0.00000000E+00 0.00000000E+00-8.35305127E-07 0.00000000E+00
 9  1 0.00000000E+00 0.00000000E+00 0.00000000E+00 6.20806315E-04 0.00000000E+00
 9  2 0.00000000E+00 0.00000000E+00 0.00000000E+00 0.00000000E+00-9.18707636E-01
 9  3 0.00000000E+00 0.00000000E+00 1.04957846E+00 0.00000000E+00 0.00000000E+00
 9  4 0.00000000E+00 0.00000000E+00 0.00000000E+00 0.00000000E+00-8.35305127E-07
10  1 5.86653000E-02-7.40901442E-02 0.00000000E+00 0.00000000E+00-1.19994371E-02
10  2 2.41779594E-03 6.16856642E-03-5.59151237E-03 0.00000000E+00 0.00000000E+00
10  3-8.99385474E-01 0.00000000E+00 0.00000000E+00 1.06189810E+00 4.63593464E-05
10  4 4.63593464E-05-9.27186928E-05 0.00000000E+00 0.00000000E+00 0.00000000E+00
11  1 9.57096649E-04-7.30490507E-04 0.00000000E+00 0.00000000E+00 9.99927427E-01
11  2 6.55302522E-04 1.64142607E-03-1.57275395E-03 0.00000000E+00 0.00000000E+00
11  3-1.08322422E-02 0.00000000E+00 0.00000000E+00 1.30314680E-02 5.92396613E-06
11  4 5.92396613E-06-1.18479323E-05 0.00000000E+00 0.00000000E+00 0.00000000E+00
12  1 0.00000000E+00 0.00000000E+00 0.00000000E+00 9.99999807E-01 0.00000000E+00
12  2 0.00000000E+00 0.00000000E+00 0.00000000E+00 0.00000000E+00 5.67842653E-04
12  3 0.00000000E+00 0.00000000E+00-6.68110976E-04 0.00000000E+00 0.00000000E+00
12  4 0.00000000E+00 0.00000000E+00 0.00000000E+00 0.00000000E+00 3.97363034E-06
13  1 0.00000000E+00 0.00000000E+00 9.99999807E-01 0.00000000E+00 0.00000000E+00
13  2 0.00000000E+00 0.00000000E+00 0.00000000E+00 5.67842653E-04 0.00000000E+00
13  3 0.00000000E+00-6.68110976E-04 0.00000000E+00 0.00000000E+00 0.00000000E+00
13  4 0.00000000E+00 0.00000000E+00 0.00000000E+00 3.97363034E-06 0.00000000E+00
14  1-2.67584095E-02 3.33149979E-02 0.00000000E+00 0.00000000E+00-1.02177055E-03
14  2 6.27156564E-01 1.55235370E+00-1.52702944E+00 0.00000000E+00 0.00000000E+00
14  3 3.25266212E-03 0.00000000E+00 0.00000000E+00-4.31383985E-03-7.74010327E-04
14  4-7.74010327E-04 1.54802065E-03 0.00000000E+00 0.00000000E+00 0.00000000E+00
15  1 2.65961357E-03-3.64611721E-03-0.00000000E+00-0.00000000E+00 1.23323482E-05
15  2-6.64854009E-04-1.78364520E-03 3.08750627E-03-0.00000000E+00-0.00000000E+00
15  3-8.23954725E-05-0.00000000E+00-0.00000000E+00 1.45978783E-04-4.99999501E-01
15  4-4.99999501E-01 9.99999002E-01-0.00000000E+00-0.00000000E+00-0.00000000E+00
16  1-0.00000000E+00-0.00000000E+00-0.00000000E+00-3.97320021E-06-0.00000000E+00
16  2-0.00000000E+00-0.00000000E+00-0.00000000E+00-0.00000000E+00-9.62201199E-07
16  3-0.00000000E+00-0.00000000E+00 7.49514653E-07-0.00000000E+00-0.00000000E+00
16  4-0.00000000E+00-0.00000000E+00-0.00000000E+00-0.00000000E+00 1.00000000E+00
17  1-0.00000000E+00-0.00000000E+00-3.97320021E-06-0.00000000E+00-0.00000000E+00
17  2-0.00000000E+00-0.00000000E+00-0.00000000E+00-9.62201199E-07-0.00000000E+00
17  3-0.00000000E+00 7.49514652E-07-0.00000000E+00-0.00000000E+00-0.00000000E+00
17  4-0.00000000E+00-0.00000000E+00-0.00000000E+00 1.00000000E+00-0.00000000E+00
18  1 0.00000000E+00 0.00000000E+00 0.00000000E+00 0.00000000E+00 0.00000000E+00
18  2 0.00000000E+00 0.00000000E+00 0.00000000E+00 0.00000000E+00 0.00000000E+00
18  3 0.00000000E+00 0.00000000E+00 0.00000000E+00 0.00000000E+00 0.00000000E+00
18  4 0.00000000E+00 0.00000000E+00 1.00000000E+00 0.00000000E+00 0.00000000E+00
19  1 0.00000000E+00 0.00000000E+00 0.00000000E+00 0.00000000E+00 0.00000000E+00
19  2 0.00000000E+00 0.00000000E+00 0.00000000E+00 0.00000000E+00 0.00000000E+00
19  3 0.00000000E+00 0.00000000E+00 0.00000000E+00 0.00000000E+00 8.66025404E-01
19  4-8.66025404E-01 0.00000000E+00 0.00000000E+00 0.00000000E+00 0.00000000E+00
 $END   
